
#Unites and dims
units electron
dimension 2
boundary p p p 
atom_style atomic
atom_modify sort 0 0.0 map yes

#User-defined parameters

#Time step is in femtoseconds
timestep 1
#Define temperature in Kelvin 
variable Temp equal 11.6
#Define force constant
variable k equal 1.21647924e-8
#Number of beads
variable Nbeads equal 36.0
variable ibead uloop ${Nbeads} pad
variable seed equal 98743501

#Create box and atoms. All distances are in Bohr
region box block -1500 1500 -1500 1500 -1500 1500
create_box 1 box

variable a loop 16
label loop
variable xnow equal -100+$a*200/16
create_atoms 1 single ${xnow} 0.0 0.0  # X Y Z coordinates  are in units of Bohr
next a
jump SELF loop

#Mass is in amu. This is the electron mass in amu
mass 1 0.00054858

#read_restart restart

pair_style gauss/cut 100.0
pair_coeff * * 0 0.0 33.67207052340757

#Initialize velocities
velocity all create ${Temp} ${seed}${ibead} mom yes rot yes dist gaussian

#Define variables for force constants
variable fx atom -v_k*x
variable fy atom -v_k*y
#variable fz atom -v_k*z
#variable harm3d atom 0.5*v_k*(x^2+y^2+z^2)
variable harm2d atom 0.5*v_k*(x^2+y^2)
#variable harm1d atom 0.5*v_k*(x^2)

#Add harmonic external force
#fix harm all addforce v_fx v_fy v_fz energy v_harm3d
fix harm all addforce v_fx v_fy 0.0 energy v_harm2d
#Add harmonic potential energy to total energy and potential energy
fix_modify harm energy yes

dump xyz all xyz 100 system_${ibead}.xyz

fix 12 all pimdb method nmpimd fmass 1.0 sp 1.0 temp ${Temp} nhc 4
variable newvir equal f_12[3]

#print thermodynamics info to log file every n steps
thermo_style custom step time temp ke pe etotal fmax fnorm v_newvir
thermo 100

#
fix 5 all enforce2d
run             3000000
